150 9084568
23 109 15 107 93 11 96 63 47 135 45 121 136 27 115 110 79 103 88 99 10 42 46 147 50 140 12 127 9 18 69 64 36 123 1 84 19 118 94 41 34 29 150 61 43 53 2 33 144 120 92 83 48 97 30 3 146 17 59 60 112 86 75 124 114 58 80 66 74 104 111 139 77 134 100 57 73 141 20 51 24 4 149 13 117 32 28 95 138 142 37 137 22 105 148 39 78 113 44 90 25 76 89 68 85 21 55 35 82 7 145 87 129 52 56 131 6 102 106 54 49 71 101 91 133 126 14 81 130 40 72 122 26 65 143 98 116 31 67 125 128 38 119 16 132 8 5 70 62 108 
